1 2 126
1 3 240
1 4 449
1 5 338
1 6 442
1 7 414
1 8 275
1 9 493
1 10 201
1 11 203
1 12 81
1 13 129
1 14 26
1 15 274
1 16 318
1 17 351
1 18 271
1 19 350
1 20 241
1 21 77
1 22 279
1 23 459
1 24 294
1 25 162
1 26 259
1 27 292
1 28 155
1 29 472
1 30 208
2 3 360
2 4 374
2 5 248
2 6 426
2 7 387
2 8 386
2 9 456
2 10 171
2 11 316
2 12 48
2 13 120
2 14 153
2 15 343
2 16 382
2 17 423
2 18 344
2 19 441
2 20 355
2 21 49
2 22 217
2 23 504
2 24 334
2 25 40
2 26 239
2 27 350
2 28 167
2 29 481
2 30 240
3 4 574
3 5 500
3 6 468
3 7 468
3 8 58
3 9 549
3 10 334
3 11 53
3 12 320
3 13 291
3 14 215
3 15 192
3 16 224
3 17 225
3 18 181
3 19 170
3 20 36
3 21 315
3 22 419
3 23 363
3 24 266
3 25 399
3 26 350
3 27 228
3 28 271
3 29 448
3 30 251
4 5 130
4 6 216
4 7 168
4 8 561
4 9 160
4 10 255
4 11 522
4 12 410
4 13 322
4 14 467
4 15 419
4 16 422
4 17 464
4 18 429
4 19 535
4 20 547
4 21 406
4 22 170
4 23 435
4 24 346
4 25 378
4 26 224
4 27 392
4 28 317
4 29 312
4 30 324
5 6 271
5 7 218
5 8 498
5 9 254
5 10 166
5 11 447
5 12 288
5 13 220
5 14 358
5 15 378
5 16 394
5 17 440
5 18 386
5 19 498
5 20 478
5 21 284
5 22 84
5 23 451
5 24 319
5 25 249
5 26 171
5 27 360
5 28 229
5 29 359
5 30 263
6 7 53
6 8 436
6 9 90
6 10 256
6 11 422
6 12 442
6 13 322
6 14 448
6 15 280
6 16 263
6 17 293
6 18 292
6 19 374
6 20 434
6 21 435
6 22 228
6 23 227
6 24 203
6 25 450
6 26 188
6 27 245
6 28 287
6 29 96
6 30 244
7 8 441
7 9 82
7 10 220
7 11 419
7 12 406
7 13 290
7 14 423
7 15 287
7 16 278
7 17 314
7 18 299
7 19 392
7 20 435
7 21 399
7 22 181
7 23 267
7 24 209
7 25 407
7 26 156
7 27 254
7 28 260
7 29 147
7 30 228
8 9 520
8 10 333
8 11 71
8 12 351
8 13 302
8 14 252
8 15 155
8 16 180
8 17 173
8 18 143
8 19 112
8 20 34
8 21 345
8 22 415
8 23 310
8 24 233
8 25 426
8 26 338
8 27 190
8 28 273
8 29 406
8 30 238
9 10 295
9 11 500
9 12 479
9 13 366
9 14 503
9 15 365
9 16 351
9 17 384
9 18 376
9 19 464
9 20 516
9 21 473
9 22 241
9 23 314
9 24 287
9 25 472
9 26 234
9 27 331
9 28 340
9 29 174
9 30 311
10 11 281
10 12 186
10 13 72
10 14 215
10 15 227
10 16 254
10 17 299
10 18 233
10 19 345
10 20 312
10 21 179
10 22 87
10 23 350
10 24 187
10 25 199
10 26 67
10 27 218
10 28 64
10 29 310
10 30 107
11 12 280
11 13 240
11 14 181
11 15 153
11 16 191
11 17 200
11 18 142
11 19 164
11 20 38
11 21 274
11 22 366
11 23 335
11 24 221
11 25 356
11 26 297
11 27 187
11 28 218
11 29 408
11 30 198
12 13 121
12 14 108
12 15 325
12 16 366
12 17 405
12 18 324
12 19 415
12 20 318
12 21 7
12 22 246
12 23 497
12 24 327
12 25 80
12 26 253
12 27 336
12 28 164
12 29 487
12 30 234
13 14 144
13 15 230
13 16 265
13 17 308
13 18 232
13 19 337
13 20 276
13 21 113
13 22 152
13 23 384
13 24 214
13 25 156
13 26 134
13 27 232
13 28 47
13 29 366
13 30 120
14 15 263
14 16 307
14 17 338
14 18 259
14 19 332
14 20 218
14 21 104
14 22 296
14 23 451
14 24 290
14 25 189
14 26 269
14 27 284
14 28 163
14 29 472
14 30 209
15 16 44
15 17 79
15 18 11
15 19 119
15 20 156
15 21 318
15 22 294
15 23 191
15 24 78
15 25 382
15 26 207
15 27 35
15 28 185
15 29 256
15 30 120
16 17 46
16 18 51
16 19 114
16 20 188
16 21 358
16 22 312
16 23 148
16 24 77
16 25 420
16 26 223
16 27 35
16 28 219
16 29 225
16 30 149
17 18 80
17 19 81
17 20 189
17 21 397
17 22 358
17 23 138
17 24 121
17 25 462
17 26 269
17 27 81
17 28 263
17 29 243
17 30 194
18 19 112
18 20 145
18 21 316
18 22 301
18 23 199
18 24 89
18 25 383
18 26 215
18 27 47
18 28 188
18 29 267
18 30 126
19 20 139
19 21 408
19 22 414
19 23 209
19 24 188
19 25 482
19 26 327
19 27 142
19 28 297
19 29 324
19 30 238
20 21 312
20 22 396
20 23 327
20 24 231
20 25 394
20 26 323
20 27 192
20 28 250
20 29 412
20 30 223
21 22 241
21 23 489
21 24 319
21 25 84
21 26 246
21 27 328
21 28 157
21 29 480
21 30 226
22 23 379
22 24 237
22 25 231
22 26 89
22 27 277
22 28 151
22 29 305
22 30 179
23 24 170
23 25 540
23 26 296
23 27 166
23 28 337
23 29 143
23 30 264
24 25 370
24 26 148
24 27 46
24 28 167
24 29 191
24 30 94
25 26 266
25 27 387
25 28 203
25 29 509
25 30 276
26 27 188
26 28 105
26 29 243
26 30 99
27 28 185
27 29 220
27 30 114
28 29 324
28 30 73
29 30 264
